Maximize
  - 4.918149972851 edge_0_2_0_0 - 4.9344291118026 edge_0_4_0_0
   - 5.380564319295 edge_0_5_0_0 - 3.676512468632 edge_0_6_0_0
   - 4.847842863186401 edge_0_8_0_0 - 1.9390652307164 edge_0_10_0_0
   - 2.221710316746 edge_0_11_0_0 - 4.3912443872698 edge_0_14_0_0
   - 5.492303621622799 edge_0_16_0_0 - 4.352847649461 edge_0_18_0_0
   + 0.204146103594546 edge_2_3_0_0 - 0.2117565981555554 edge_2_4_0_0
   + 0.11277303541715 edge_4_2_0_0 + 3.281678547222855 edge_4_3_0_0
   + 1.298799426191061 edge_4_5_0_0 + 0.9190554773059842 edge_4_6_0_0
   + 1.254016813129433 edge_4_7_0_0 - 0.5412721335504784 edge_4_8_0_0
   + 0.2285867552928566 edge_4_10_0_0 - 1.215337694501576 edge_4_11_0_0
   + 0.6690886948439132 edge_4_13_0_0 - 0.7108489547131651 edge_4_17_0_0
   - 0.1103713116243503 edge_4_21_0_0 + 0.0238646437536704 edge_4_22_0_0
   + 2.3406395786848 edge_4_28_0_0 + 0.8669916600266363 edge_5_2_0_0
   - 0.1661679639856478 edge_5_3_0_0 + 0.3806145267403728 edge_5_4_0_0
   + 0.9605277735122438 edge_5_6_0_0 + 0.4473632300453046 edge_5_7_0_0
   - 1.184498593876107 edge_5_8_0_0 - 0.360750436529611 edge_5_10_0_0
   - 1.128737035195302 edge_5_11_0_0 + 0.2664605959673184 edge_5_13_0_0
   - 1.791293213126306 edge_5_17_0_0 - 0.3146441781721023 edge_5_21_0_0
   - 0.0643507412953622 edge_5_22_0_0 + 0.7907729080735 edge_5_28_0_0
   + 2.207964190286142 edge_6_2_0_0 + 1.197741345814604 edge_6_3_0_0
   + 2.157338233999048 edge_6_4_0_0 + 3.17621356832213 edge_6_5_0_0
   + 2.385072658011141 edge_6_7_0_0 + 0.5142020668761177 edge_6_8_0_0
   + 0.5120141950629892 edge_6_10_0_0 + 0.0780982323659923 edge_6_11_0_0
   + 1.604396566701015 edge_6_13_0_0 - 0.4076668087368526 edge_6_14_0_0
   - 1.520080144287429 edge_6_16_0_0 + 0.3536958373113026 edge_6_17_0_0
   - 0.5446005029451696 edge_6_18_0_0 + 1.283495117747013 edge_6_21_0_0
   + 0.254839148922867 edge_6_22_0_0 - 1.288099787745802 edge_6_23_0_0
   - 0.7239688397870631 edge_6_24_0_0 - 0.9657350524989797 edge_6_25_0_0
   + 4.663893997488 edge_6_28_0_0 - 0.0621160998402742 edge_8_2_0_0
   - 0.3677166966943958 edge_8_3_0_0 - 0.7057257410944237 edge_8_4_0_0
   + 0.5016218276726414 edge_8_5_0_0 + 0.3770354726757668 edge_8_6_0_0
   + 0.3368596096588616 edge_8_7_0_0 - 0.0705765963405078 edge_8_10_0_0
   - 0.6921724916621372 edge_8_11_0_0 + 0.3891146570860461 edge_10_2_0_0
   + 0.1466090470900468 edge_10_4_0_0 + 0.5593089572986796 edge_10_5_0_0
   + 0.0629828375600844 edge_10_6_0_0 + 0.7403731973185655 edge_10_7_0_0
   + 1.107781298703137 edge_10_8_0_0 + 0.6704134765716208 edge_10_10_0_0
   + 0.9565066404832752 edge_10_11_0_0 + 0.7927307975120815 edge_10_13_0_0
   + 1.012496964860721 edge_10_14_0_0 - 0.200705242238615 edge_10_16_0_0
   + 0.2630487001604317 edge_10_17_0_0 - 0.0322362891695584 edge_10_18_0_0
   + 0.9512810654485836 edge_10_21_0_0 + 0.3375933926167126 edge_10_22_0_0
   - 0.0366787191834183 edge_10_24_0_0 - 0.4925701706123324 edge_10_25_0_0
   + 2.4034693056512 edge_10_28_0_0 + 0.5450891523314846 edge_11_2_0_0
   - 0.3981485067918141 edge_11_3_0_0 + 0.1830654579572916 edge_11_4_0_0
   + 0.6064412703600889 edge_11_5_0_0 - 0.3830225717174806 edge_11_6_0_0
   + 0.8643835586222549 edge_11_7_0_0 + 1.42555180953053 edge_11_8_0_0
   + 0.81980236167581 edge_11_10_0_0 + 1.013895399589808 edge_11_13_0_0
   + 0.768273889365949 edge_11_14_0_0 - 0.4728578902634483 edge_11_16_0_0
   + 0.1376436709759564 edge_11_17_0_0 - 0.3437372264889175 edge_11_18_0_0
   + 0.6334284831215543 edge_11_21_0_0 + 0.631156314791964 edge_11_22_0_0
   - 0.5091114057065705 edge_11_24_0_0 - 0.9221259861684684 edge_11_25_0_0
   + 1.886111860586 edge_11_28_0_0 - 0.1091934547868515 edge_13_14_0_0
   + 0.2615771751730027 edge_14_2_0_0 - 0.312339621242778 edge_14_4_0_0
   + 1.136021916640134 edge_14_5_0_0 - 1.033542039621075 edge_14_6_0_0
   + 0.6302429247967222 edge_14_7_0_0 + 0.8286963114125323 edge_14_8_0_0
   + 0.5404701066500434 edge_14_10_0_0 + 0.5218936754424565 edge_14_11_0_0
   + 1.743444063894883 edge_14_13_0_0 + 0.3561332600916629 edge_14_15_0_0
   + 0.3222191281432121 edge_14_16_0_0 + 1.39629820439697 edge_14_17_0_0
   + 0.0921984053067232 edge_14_18_0_0 + 1.50330895145618 edge_14_21_0_0
   + 0.7830025561898316 edge_14_22_0_0 - 0.7491846477528251 edge_14_23_0_0
   - 0.2539116379894021 edge_14_24_0_0 - 0.7753630196338565 edge_14_25_0_0
   + 3.191765321673 edge_14_28_0_0 + 0.2953151618861163 edge_16_13_0_0
   - 0.0573209744199795 edge_16_14_0_0 + 3.618252897159705 edge_16_15_0_0
   + 1.624776858735756 edge_16_17_0_0 + 0.851013769856236 edge_16_18_0_0
   + 0.9876803936025197 edge_16_21_0_0 + 1.500941675517734 edge_16_22_0_0
   - 1.200077752280532 edge_16_23_0_0 - 0.4112316001322032 edge_16_24_0_0
   - 0.5862466894241688 edge_16_25_0_0 + 1.72259967818 edge_16_28_0_0
   - 1.067798497980385 edge_17_2_0_0 - 2.760906206516793 edge_17_4_0_0
   - 0.5564330211355619 edge_17_5_0_0 - 1.628089583251217 edge_17_6_0_0
   - 1.794979499760164 edge_17_7_0_0 - 1.277156580743237 edge_17_8_0_0
   - 0.4561585901564651 edge_17_10_0_0 - 1.708390049590157 edge_17_11_0_0
   - 1.000644557199086 edge_17_13_0_0 - 1.414793676946334 edge_17_14_0_0
   + 0.2055347616684848 edge_17_15_0_0 + 0.5977319016075427 edge_17_16_0_0
   + 1.49744350487007 edge_17_18_0_0 + 0.805354879184166 edge_17_21_0_0
   + 1.022868139480824 edge_17_22_0_0 - 1.633485515172773 edge_17_23_0_0
   - 0.8137163739270556 edge_17_24_0_0 - 0.5550000563282351 edge_17_25_0_0
   + 0.16573219619875 edge_17_28_0_0 + 0.1456691520122654 edge_18_15_0_0
   - 0.1400203844749316 edge_18_16_0_0 + 0.6994565850684901 edge_18_17_0_0
   + 0.97119756796773 edge_18_21_0_0 + 1.030909028692024 edge_18_22_0_0
   - 0.665071800065684 edge_18_23_0_0 - 0.4868232269999455 edge_18_24_0_0
   + 1.021889325552666 edge_18_25_0_0 - 0.4344014069496567 edge_22_23_0_0
   - 0.296905408689182 edge_22_24_0_0 - 1.135394734757275 edge_24_2_0_0
   - 0.1881601323183898 edge_24_16_0_0 - 0.013736741615481 edge_24_17_0_0
   - 0.2911402337068889 edge_24_18_0_0 + 0.1502171507122821 edge_24_21_0_0
   + 2.120866672823233 edge_24_23_0_0 + 1.332244350408458 edge_24_25_0_0
   + 0.8247901185629399 edge_24_28_0_0 + 0.8053621340484323 edge_25_23_0_0
   + 0.3139670317656416 edge_25_24_0_0
Subject To
 one_parent_1: = 1
 consume_one_flow_unit_1: = 1
 one_parent_2: edge_0_2_0_0 + edge_4_2_0_0 + edge_5_2_0_0 + edge_6_2_0_0
   + edge_8_2_0_0 + edge_10_2_0_0 + edge_11_2_0_0 + edge_14_2_0_0
   + edge_17_2_0_0 + edge_24_2_0_0 = 1
 consume_one_flow_unit_2: flow_0_2_0_0 - flow_2_3_0_0 - flow_2_4_0_0
   + flow_4_2_0_0 + flow_5_2_0_0 + flow_6_2_0_0 + flow_8_2_0_0
   + flow_10_2_0_0 + flow_11_2_0_0 + flow_14_2_0_0 + flow_17_2_0_0
   + flow_24_2_0_0 = 1
 one_parent_3: edge_2_3_0_0 + edge_4_3_0_0 + edge_5_3_0_0 + edge_6_3_0_0
   + edge_8_3_0_0 + edge_11_3_0_0 = 1
 consume_one_flow_unit_3: flow_2_3_0_0 + flow_4_3_0_0 + flow_5_3_0_0
   + flow_6_3_0_0 + flow_8_3_0_0 + flow_11_3_0_0 = 1
 one_parent_4: edge_0_4_0_0 + edge_2_4_0_0 + edge_5_4_0_0 + edge_6_4_0_0
   + edge_8_4_0_0 + edge_10_4_0_0 + edge_11_4_0_0 + edge_14_4_0_0
   + edge_17_4_0_0 = 1
 consume_one_flow_unit_4: flow_0_4_0_0 + flow_2_4_0_0 - flow_4_2_0_0
   - flow_4_3_0_0 - flow_4_5_0_0 - flow_4_6_0_0 - flow_4_7_0_0
   - flow_4_8_0_0 - flow_4_10_0_0 - flow_4_11_0_0 - flow_4_13_0_0
   - flow_4_17_0_0 - flow_4_21_0_0 - flow_4_22_0_0 - flow_4_28_0_0
   + flow_5_4_0_0 + flow_6_4_0_0 + flow_8_4_0_0 + flow_10_4_0_0
   + flow_11_4_0_0 + flow_14_4_0_0 + flow_17_4_0_0 = 1
 one_parent_5: edge_0_5_0_0 + edge_4_5_0_0 + edge_6_5_0_0 + edge_8_5_0_0
   + edge_10_5_0_0 + edge_11_5_0_0 + edge_14_5_0_0 + edge_17_5_0_0 = 1
 consume_one_flow_unit_5: flow_0_5_0_0 + flow_4_5_0_0 - flow_5_2_0_0
   - flow_5_3_0_0 - flow_5_4_0_0 - flow_5_6_0_0 - flow_5_7_0_0
   - flow_5_8_0_0 - flow_5_10_0_0 - flow_5_11_0_0 - flow_5_13_0_0
   - flow_5_17_0_0 - flow_5_21_0_0 - flow_5_22_0_0 - flow_5_28_0_0
   + flow_6_5_0_0 + flow_8_5_0_0 + flow_10_5_0_0 + flow_11_5_0_0
   + flow_14_5_0_0 + flow_17_5_0_0 = 1
 one_parent_6: edge_0_6_0_0 + edge_4_6_0_0 + edge_5_6_0_0 + edge_8_6_0_0
   + edge_10_6_0_0 + edge_11_6_0_0 + edge_14_6_0_0 + edge_17_6_0_0 = 1
 consume_one_flow_unit_6: flow_0_6_0_0 + flow_4_6_0_0 + flow_5_6_0_0
   - flow_6_2_0_0 - flow_6_3_0_0 - flow_6_4_0_0 - flow_6_5_0_0
   - flow_6_7_0_0 - flow_6_8_0_0 - flow_6_10_0_0 - flow_6_11_0_0
   - flow_6_13_0_0 - flow_6_14_0_0 - flow_6_16_0_0 - flow_6_17_0_0
   - flow_6_18_0_0 - flow_6_21_0_0 - flow_6_22_0_0 - flow_6_23_0_0
   - flow_6_24_0_0 - flow_6_25_0_0 - flow_6_28_0_0 + flow_8_6_0_0
   + flow_10_6_0_0 + flow_11_6_0_0 + flow_14_6_0_0 + flow_17_6_0_0 = 1
 one_parent_7: edge_4_7_0_0 + edge_5_7_0_0 + edge_6_7_0_0 + edge_8_7_0_0
   + edge_10_7_0_0 + edge_11_7_0_0 + edge_14_7_0_0 + edge_17_7_0_0 = 1
 consume_one_flow_unit_7: flow_4_7_0_0 + flow_5_7_0_0 + flow_6_7_0_0
   + flow_8_7_0_0 + flow_10_7_0_0 + flow_11_7_0_0 + flow_14_7_0_0
   + flow_17_7_0_0 = 1
 one_parent_8: edge_0_8_0_0 + edge_4_8_0_0 + edge_5_8_0_0 + edge_6_8_0_0
   + edge_10_8_0_0 + edge_11_8_0_0 + edge_14_8_0_0 + edge_17_8_0_0 = 1
 consume_one_flow_unit_8: flow_0_8_0_0 + flow_4_8_0_0 + flow_5_8_0_0
   + flow_6_8_0_0 - flow_8_2_0_0 - flow_8_3_0_0 - flow_8_4_0_0
   - flow_8_5_0_0 - flow_8_6_0_0 - flow_8_7_0_0 - flow_8_10_0_0
   - flow_8_11_0_0 + flow_10_8_0_0 + flow_11_8_0_0 + flow_14_8_0_0
   + flow_17_8_0_0 = 1
 one_parent_9: = 1
 consume_one_flow_unit_9: = 1
 one_parent_10: edge_0_10_0_0 + edge_4_10_0_0 + edge_5_10_0_0
   + edge_6_10_0_0 + edge_8_10_0_0 + edge_10_10_0_0 + edge_11_10_0_0
   + edge_14_10_0_0 + edge_17_10_0_0 = 1
 consume_one_flow_unit_10: flow_0_10_0_0 + flow_4_10_0_0 + flow_5_10_0_0
   + flow_6_10_0_0 + flow_8_10_0_0 - flow_10_2_0_0 - flow_10_4_0_0
   - flow_10_5_0_0 - flow_10_6_0_0 - flow_10_7_0_0 - flow_10_8_0_0
   - flow_10_11_0_0 - flow_10_13_0_0 - flow_10_14_0_0 - flow_10_16_0_0
   - flow_10_17_0_0 - flow_10_18_0_0 - flow_10_21_0_0 - flow_10_22_0_0
   - flow_10_24_0_0 - flow_10_25_0_0 - flow_10_28_0_0 + flow_11_10_0_0
   + flow_14_10_0_0 + flow_17_10_0_0 = 1
 one_parent_11: edge_0_11_0_0 + edge_4_11_0_0 + edge_5_11_0_0
   + edge_6_11_0_0 + edge_8_11_0_0 + edge_10_11_0_0 + edge_14_11_0_0
   + edge_17_11_0_0 = 1
 consume_one_flow_unit_11: flow_0_11_0_0 + flow_4_11_0_0 + flow_5_11_0_0
   + flow_6_11_0_0 + flow_8_11_0_0 + flow_10_11_0_0 - flow_11_2_0_0
   - flow_11_3_0_0 - flow_11_4_0_0 - flow_11_5_0_0 - flow_11_6_0_0
   - flow_11_7_0_0 - flow_11_8_0_0 - flow_11_10_0_0 - flow_11_13_0_0
   - flow_11_14_0_0 - flow_11_16_0_0 - flow_11_17_0_0 - flow_11_18_0_0
   - flow_11_21_0_0 - flow_11_22_0_0 - flow_11_24_0_0 - flow_11_25_0_0
   - flow_11_28_0_0 + flow_14_11_0_0 + flow_17_11_0_0 = 1
 one_parent_12: = 1
 consume_one_flow_unit_12: = 1
 one_parent_13: edge_4_13_0_0 + edge_5_13_0_0 + edge_6_13_0_0
   + edge_10_13_0_0 + edge_11_13_0_0 + edge_14_13_0_0 + edge_16_13_0_0
   + edge_17_13_0_0 = 1
 consume_one_flow_unit_13: flow_4_13_0_0 + flow_5_13_0_0 + flow_6_13_0_0
   + flow_10_13_0_0 + flow_11_13_0_0 - flow_13_14_0_0 + flow_14_13_0_0
   + flow_16_13_0_0 + flow_17_13_0_0 = 1
 one_parent_14: edge_0_14_0_0 + edge_6_14_0_0 + edge_10_14_0_0
   + edge_11_14_0_0 + edge_13_14_0_0 + edge_16_14_0_0 + edge_17_14_0_0 = 1
 consume_one_flow_unit_14: flow_0_14_0_0 + flow_6_14_0_0 + flow_10_14_0_0
   + flow_11_14_0_0 + flow_13_14_0_0 - flow_14_2_0_0 - flow_14_4_0_0
   - flow_14_5_0_0 - flow_14_6_0_0 - flow_14_7_0_0 - flow_14_8_0_0
   - flow_14_10_0_0 - flow_14_11_0_0 - flow_14_13_0_0 - flow_14_15_0_0
   - flow_14_16_0_0 - flow_14_17_0_0 - flow_14_18_0_0 - flow_14_21_0_0
   - flow_14_22_0_0 - flow_14_23_0_0 - flow_14_24_0_0 - flow_14_25_0_0
   - flow_14_28_0_0 + flow_16_14_0_0 + flow_17_14_0_0 = 1
 one_parent_15: edge_14_15_0_0 + edge_16_15_0_0 + edge_17_15_0_0
   + edge_18_15_0_0 = 1
 consume_one_flow_unit_15: flow_14_15_0_0 + flow_16_15_0_0 + flow_17_15_0_0
   + flow_18_15_0_0 = 1
 one_parent_16: edge_0_16_0_0 + edge_6_16_0_0 + edge_10_16_0_0
   + edge_11_16_0_0 + edge_14_16_0_0 + edge_17_16_0_0 + edge_18_16_0_0
   + edge_24_16_0_0 = 1
 consume_one_flow_unit_16: flow_0_16_0_0 + flow_6_16_0_0 + flow_10_16_0_0
   + flow_11_16_0_0 + flow_14_16_0_0 - flow_16_13_0_0 - flow_16_14_0_0
   - flow_16_15_0_0 - flow_16_17_0_0 - flow_16_18_0_0 - flow_16_21_0_0
   - flow_16_22_0_0 - flow_16_23_0_0 - flow_16_24_0_0 - flow_16_25_0_0
   - flow_16_28_0_0 + flow_17_16_0_0 + flow_18_16_0_0 + flow_24_16_0_0 = 1
 one_parent_17: edge_4_17_0_0 + edge_5_17_0_0 + edge_6_17_0_0
   + edge_10_17_0_0 + edge_11_17_0_0 + edge_14_17_0_0 + edge_16_17_0_0
   + edge_18_17_0_0 + edge_24_17_0_0 = 1
 consume_one_flow_unit_17: flow_4_17_0_0 + flow_5_17_0_0 + flow_6_17_0_0
   + flow_10_17_0_0 + flow_11_17_0_0 + flow_14_17_0_0 + flow_16_17_0_0
   - flow_17_2_0_0 - flow_17_4_0_0 - flow_17_5_0_0 - flow_17_6_0_0
   - flow_17_7_0_0 - flow_17_8_0_0 - flow_17_10_0_0 - flow_17_11_0_0
   - flow_17_13_0_0 - flow_17_14_0_0 - flow_17_15_0_0 - flow_17_16_0_0
   - flow_17_18_0_0 - flow_17_21_0_0 - flow_17_22_0_0 - flow_17_23_0_0
   - flow_17_24_0_0 - flow_17_25_0_0 - flow_17_28_0_0 + flow_18_17_0_0
   + flow_24_17_0_0 = 1
 one_parent_18: edge_0_18_0_0 + edge_6_18_0_0 + edge_10_18_0_0
   + edge_11_18_0_0 + edge_14_18_0_0 + edge_16_18_0_0 + edge_17_18_0_0
   + edge_24_18_0_0 = 1
 consume_one_flow_unit_18: flow_0_18_0_0 + flow_6_18_0_0 + flow_10_18_0_0
   + flow_11_18_0_0 + flow_14_18_0_0 + flow_16_18_0_0 + flow_17_18_0_0
   - flow_18_15_0_0 - flow_18_16_0_0 - flow_18_17_0_0 - flow_18_21_0_0
   - flow_18_22_0_0 - flow_18_23_0_0 - flow_18_24_0_0 - flow_18_25_0_0
   + flow_24_18_0_0 = 1
 one_parent_19: = 1
 consume_one_flow_unit_19: = 1
 one_parent_20: = 1
 consume_one_flow_unit_20: = 1
 one_parent_21: edge_4_21_0_0 + edge_5_21_0_0 + edge_6_21_0_0
   + edge_10_21_0_0 + edge_11_21_0_0 + edge_14_21_0_0 + edge_16_21_0_0
   + edge_17_21_0_0 + edge_18_21_0_0 + edge_24_21_0_0 = 1
 consume_one_flow_unit_21: flow_4_21_0_0 + flow_5_21_0_0 + flow_6_21_0_0
   + flow_10_21_0_0 + flow_11_21_0_0 + flow_14_21_0_0 + flow_16_21_0_0
   + flow_17_21_0_0 + flow_18_21_0_0 + flow_24_21_0_0 = 1
 one_parent_22: edge_4_22_0_0 + edge_5_22_0_0 + edge_6_22_0_0
   + edge_10_22_0_0 + edge_11_22_0_0 + edge_14_22_0_0 + edge_16_22_0_0
   + edge_17_22_0_0 + edge_18_22_0_0 = 1
 consume_one_flow_unit_22: flow_4_22_0_0 + flow_5_22_0_0 + flow_6_22_0_0
   + flow_10_22_0_0 + flow_11_22_0_0 + flow_14_22_0_0 + flow_16_22_0_0
   + flow_17_22_0_0 + flow_18_22_0_0 - flow_22_23_0_0 - flow_22_24_0_0 = 1
 one_parent_23: edge_6_23_0_0 + edge_14_23_0_0 + edge_16_23_0_0
   + edge_17_23_0_0 + edge_18_23_0_0 + edge_22_23_0_0 + edge_24_23_0_0
   + edge_25_23_0_0 = 1
 consume_one_flow_unit_23: flow_6_23_0_0 + flow_14_23_0_0 + flow_16_23_0_0
   + flow_17_23_0_0 + flow_18_23_0_0 + flow_22_23_0_0 + flow_24_23_0_0
   + flow_25_23_0_0 = 1
 one_parent_24: edge_6_24_0_0 + edge_10_24_0_0 + edge_11_24_0_0
   + edge_14_24_0_0 + edge_16_24_0_0 + edge_17_24_0_0 + edge_18_24_0_0
   + edge_22_24_0_0 + edge_25_24_0_0 = 1
 consume_one_flow_unit_24: flow_6_24_0_0 + flow_10_24_0_0 + flow_11_24_0_0
   + flow_14_24_0_0 + flow_16_24_0_0 + flow_17_24_0_0 + flow_18_24_0_0
   + flow_22_24_0_0 - flow_24_2_0_0 - flow_24_16_0_0 - flow_24_17_0_0
   - flow_24_18_0_0 - flow_24_21_0_0 - flow_24_23_0_0 - flow_24_25_0_0
   - flow_24_28_0_0 + flow_25_24_0_0 = 1
 one_parent_25: edge_6_25_0_0 + edge_10_25_0_0 + edge_11_25_0_0
   + edge_14_25_0_0 + edge_16_25_0_0 + edge_17_25_0_0 + edge_18_25_0_0
   + edge_24_25_0_0 = 1
 consume_one_flow_unit_25: flow_6_25_0_0 + flow_10_25_0_0 + flow_11_25_0_0
   + flow_14_25_0_0 + flow_16_25_0_0 + flow_17_25_0_0 + flow_18_25_0_0
   + flow_24_25_0_0 - flow_25_23_0_0 - flow_25_24_0_0 = 1
 one_parent_26: = 1
 consume_one_flow_unit_26: = 1
 one_parent_27: = 1
 consume_one_flow_unit_27: = 1
 one_parent_28: edge_4_28_0_0 + edge_5_28_0_0 + edge_6_28_0_0
   + edge_10_28_0_0 + edge_11_28_0_0 + edge_14_28_0_0 + edge_16_28_0_0
   + edge_17_28_0_0 + edge_24_28_0_0 = 1
 consume_one_flow_unit_28: flow_4_28_0_0 + flow_5_28_0_0 + flow_6_28_0_0
   + flow_10_28_0_0 + flow_11_28_0_0 + flow_14_28_0_0 + flow_16_28_0_0
   + flow_17_28_0_0 + flow_24_28_0_0 = 1
 root_flow: flow_0_2_0_0 + flow_0_4_0_0 + flow_0_5_0_0 + flow_0_6_0_0
   + flow_0_8_0_0 + flow_0_10_0_0 + flow_0_11_0_0 + flow_0_14_0_0
   + flow_0_16_0_0 + flow_0_18_0_0 = 28
 inactive_no_flow_0_2_0_0: flow_0_2_0_0 - 1000 edge_0_2_0_0 <= 0
 inactive_no_flow_0_4_0_0: flow_0_4_0_0 - 1000 edge_0_4_0_0 <= 0
 inactive_no_flow_0_5_0_0: flow_0_5_0_0 - 1000 edge_0_5_0_0 <= 0
 inactive_no_flow_0_6_0_0: flow_0_6_0_0 - 1000 edge_0_6_0_0 <= 0
 inactive_no_flow_0_8_0_0: flow_0_8_0_0 - 1000 edge_0_8_0_0 <= 0
 inactive_no_flow_0_10_0_0: flow_0_10_0_0 - 1000 edge_0_10_0_0 <= 0
 inactive_no_flow_0_11_0_0: flow_0_11_0_0 - 1000 edge_0_11_0_0 <= 0
 inactive_no_flow_0_14_0_0: flow_0_14_0_0 - 1000 edge_0_14_0_0 <= 0
 inactive_no_flow_0_16_0_0: flow_0_16_0_0 - 1000 edge_0_16_0_0 <= 0
 inactive_no_flow_0_18_0_0: flow_0_18_0_0 - 1000 edge_0_18_0_0 <= 0
 inactive_no_flow_2_3_0_0: flow_2_3_0_0 - 1000 edge_2_3_0_0 <= 0
 inactive_no_flow_2_4_0_0: flow_2_4_0_0 - 1000 edge_2_4_0_0 <= 0
 inactive_no_flow_4_2_0_0: flow_4_2_0_0 - 1000 edge_4_2_0_0 <= 0
 inactive_no_flow_4_3_0_0: flow_4_3_0_0 - 1000 edge_4_3_0_0 <= 0
 inactive_no_flow_4_5_0_0: flow_4_5_0_0 - 1000 edge_4_5_0_0 <= 0
 inactive_no_flow_4_6_0_0: flow_4_6_0_0 - 1000 edge_4_6_0_0 <= 0
 inactive_no_flow_4_7_0_0: flow_4_7_0_0 - 1000 edge_4_7_0_0 <= 0
 inactive_no_flow_4_8_0_0: flow_4_8_0_0 - 1000 edge_4_8_0_0 <= 0
 inactive_no_flow_4_10_0_0: flow_4_10_0_0 - 1000 edge_4_10_0_0 <= 0
 inactive_no_flow_4_11_0_0: flow_4_11_0_0 - 1000 edge_4_11_0_0 <= 0
 inactive_no_flow_4_13_0_0: flow_4_13_0_0 - 1000 edge_4_13_0_0 <= 0
 inactive_no_flow_4_17_0_0: flow_4_17_0_0 - 1000 edge_4_17_0_0 <= 0
 inactive_no_flow_4_21_0_0: flow_4_21_0_0 - 1000 edge_4_21_0_0 <= 0
 inactive_no_flow_4_22_0_0: flow_4_22_0_0 - 1000 edge_4_22_0_0 <= 0
 inactive_no_flow_4_28_0_0: flow_4_28_0_0 - 1000 edge_4_28_0_0 <= 0
 inactive_no_flow_5_2_0_0: flow_5_2_0_0 - 1000 edge_5_2_0_0 <= 0
 inactive_no_flow_5_3_0_0: flow_5_3_0_0 - 1000 edge_5_3_0_0 <= 0
 inactive_no_flow_5_4_0_0: flow_5_4_0_0 - 1000 edge_5_4_0_0 <= 0
 inactive_no_flow_5_6_0_0: flow_5_6_0_0 - 1000 edge_5_6_0_0 <= 0
 inactive_no_flow_5_7_0_0: flow_5_7_0_0 - 1000 edge_5_7_0_0 <= 0
 inactive_no_flow_5_8_0_0: flow_5_8_0_0 - 1000 edge_5_8_0_0 <= 0
 inactive_no_flow_5_10_0_0: flow_5_10_0_0 - 1000 edge_5_10_0_0 <= 0
 inactive_no_flow_5_11_0_0: flow_5_11_0_0 - 1000 edge_5_11_0_0 <= 0
 inactive_no_flow_5_13_0_0: flow_5_13_0_0 - 1000 edge_5_13_0_0 <= 0
 inactive_no_flow_5_17_0_0: flow_5_17_0_0 - 1000 edge_5_17_0_0 <= 0
 inactive_no_flow_5_21_0_0: flow_5_21_0_0 - 1000 edge_5_21_0_0 <= 0
 inactive_no_flow_5_22_0_0: flow_5_22_0_0 - 1000 edge_5_22_0_0 <= 0
 inactive_no_flow_5_28_0_0: flow_5_28_0_0 - 1000 edge_5_28_0_0 <= 0
 inactive_no_flow_6_2_0_0: flow_6_2_0_0 - 1000 edge_6_2_0_0 <= 0
 inactive_no_flow_6_3_0_0: flow_6_3_0_0 - 1000 edge_6_3_0_0 <= 0
 inactive_no_flow_6_4_0_0: flow_6_4_0_0 - 1000 edge_6_4_0_0 <= 0
 inactive_no_flow_6_5_0_0: flow_6_5_0_0 - 1000 edge_6_5_0_0 <= 0
 inactive_no_flow_6_7_0_0: flow_6_7_0_0 - 1000 edge_6_7_0_0 <= 0
 inactive_no_flow_6_8_0_0: flow_6_8_0_0 - 1000 edge_6_8_0_0 <= 0
 inactive_no_flow_6_10_0_0: flow_6_10_0_0 - 1000 edge_6_10_0_0 <= 0
 inactive_no_flow_6_11_0_0: flow_6_11_0_0 - 1000 edge_6_11_0_0 <= 0
 inactive_no_flow_6_13_0_0: flow_6_13_0_0 - 1000 edge_6_13_0_0 <= 0
 inactive_no_flow_6_14_0_0: flow_6_14_0_0 - 1000 edge_6_14_0_0 <= 0
 inactive_no_flow_6_16_0_0: flow_6_16_0_0 - 1000 edge_6_16_0_0 <= 0
 inactive_no_flow_6_17_0_0: flow_6_17_0_0 - 1000 edge_6_17_0_0 <= 0
 inactive_no_flow_6_18_0_0: flow_6_18_0_0 - 1000 edge_6_18_0_0 <= 0
 inactive_no_flow_6_21_0_0: flow_6_21_0_0 - 1000 edge_6_21_0_0 <= 0
 inactive_no_flow_6_22_0_0: flow_6_22_0_0 - 1000 edge_6_22_0_0 <= 0
 inactive_no_flow_6_23_0_0: flow_6_23_0_0 - 1000 edge_6_23_0_0 <= 0
 inactive_no_flow_6_24_0_0: flow_6_24_0_0 - 1000 edge_6_24_0_0 <= 0
 inactive_no_flow_6_25_0_0: flow_6_25_0_0 - 1000 edge_6_25_0_0 <= 0
 inactive_no_flow_6_28_0_0: flow_6_28_0_0 - 1000 edge_6_28_0_0 <= 0
 inactive_no_flow_8_2_0_0: flow_8_2_0_0 - 1000 edge_8_2_0_0 <= 0
 inactive_no_flow_8_3_0_0: flow_8_3_0_0 - 1000 edge_8_3_0_0 <= 0
 inactive_no_flow_8_4_0_0: flow_8_4_0_0 - 1000 edge_8_4_0_0 <= 0
 inactive_no_flow_8_5_0_0: flow_8_5_0_0 - 1000 edge_8_5_0_0 <= 0
 inactive_no_flow_8_6_0_0: flow_8_6_0_0 - 1000 edge_8_6_0_0 <= 0
 inactive_no_flow_8_7_0_0: flow_8_7_0_0 - 1000 edge_8_7_0_0 <= 0
 inactive_no_flow_8_10_0_0: flow_8_10_0_0 - 1000 edge_8_10_0_0 <= 0
 inactive_no_flow_8_11_0_0: flow_8_11_0_0 - 1000 edge_8_11_0_0 <= 0
 inactive_no_flow_10_2_0_0: flow_10_2_0_0 - 1000 edge_10_2_0_0 <= 0
 inactive_no_flow_10_4_0_0: flow_10_4_0_0 - 1000 edge_10_4_0_0 <= 0
 inactive_no_flow_10_5_0_0: flow_10_5_0_0 - 1000 edge_10_5_0_0 <= 0
 inactive_no_flow_10_6_0_0: flow_10_6_0_0 - 1000 edge_10_6_0_0 <= 0
 inactive_no_flow_10_7_0_0: flow_10_7_0_0 - 1000 edge_10_7_0_0 <= 0
 inactive_no_flow_10_8_0_0: flow_10_8_0_0 - 1000 edge_10_8_0_0 <= 0
 inactive_no_flow_10_10_0_0: flow_10_10_0_0 - 1000 edge_10_10_0_0 <= 0
 inactive_no_flow_10_11_0_0: flow_10_11_0_0 - 1000 edge_10_11_0_0 <= 0
 inactive_no_flow_10_13_0_0: flow_10_13_0_0 - 1000 edge_10_13_0_0 <= 0
 inactive_no_flow_10_14_0_0: flow_10_14_0_0 - 1000 edge_10_14_0_0 <= 0
 inactive_no_flow_10_16_0_0: flow_10_16_0_0 - 1000 edge_10_16_0_0 <= 0
 inactive_no_flow_10_17_0_0: flow_10_17_0_0 - 1000 edge_10_17_0_0 <= 0
 inactive_no_flow_10_18_0_0: flow_10_18_0_0 - 1000 edge_10_18_0_0 <= 0
 inactive_no_flow_10_21_0_0: flow_10_21_0_0 - 1000 edge_10_21_0_0 <= 0
 inactive_no_flow_10_22_0_0: flow_10_22_0_0 - 1000 edge_10_22_0_0 <= 0
 inactive_no_flow_10_24_0_0: flow_10_24_0_0 - 1000 edge_10_24_0_0 <= 0
 inactive_no_flow_10_25_0_0: flow_10_25_0_0 - 1000 edge_10_25_0_0 <= 0
 inactive_no_flow_10_28_0_0: flow_10_28_0_0 - 1000 edge_10_28_0_0 <= 0
 inactive_no_flow_11_2_0_0: flow_11_2_0_0 - 1000 edge_11_2_0_0 <= 0
 inactive_no_flow_11_3_0_0: flow_11_3_0_0 - 1000 edge_11_3_0_0 <= 0
 inactive_no_flow_11_4_0_0: flow_11_4_0_0 - 1000 edge_11_4_0_0 <= 0
 inactive_no_flow_11_5_0_0: flow_11_5_0_0 - 1000 edge_11_5_0_0 <= 0
 inactive_no_flow_11_6_0_0: flow_11_6_0_0 - 1000 edge_11_6_0_0 <= 0
 inactive_no_flow_11_7_0_0: flow_11_7_0_0 - 1000 edge_11_7_0_0 <= 0
 inactive_no_flow_11_8_0_0: flow_11_8_0_0 - 1000 edge_11_8_0_0 <= 0
 inactive_no_flow_11_10_0_0: flow_11_10_0_0 - 1000 edge_11_10_0_0 <= 0
 inactive_no_flow_11_13_0_0: flow_11_13_0_0 - 1000 edge_11_13_0_0 <= 0
 inactive_no_flow_11_14_0_0: flow_11_14_0_0 - 1000 edge_11_14_0_0 <= 0
 inactive_no_flow_11_16_0_0: flow_11_16_0_0 - 1000 edge_11_16_0_0 <= 0
 inactive_no_flow_11_17_0_0: flow_11_17_0_0 - 1000 edge_11_17_0_0 <= 0
 inactive_no_flow_11_18_0_0: flow_11_18_0_0 - 1000 edge_11_18_0_0 <= 0
 inactive_no_flow_11_21_0_0: flow_11_21_0_0 - 1000 edge_11_21_0_0 <= 0
 inactive_no_flow_11_22_0_0: flow_11_22_0_0 - 1000 edge_11_22_0_0 <= 0
 inactive_no_flow_11_24_0_0: flow_11_24_0_0 - 1000 edge_11_24_0_0 <= 0
 inactive_no_flow_11_25_0_0: flow_11_25_0_0 - 1000 edge_11_25_0_0 <= 0
 inactive_no_flow_11_28_0_0: flow_11_28_0_0 - 1000 edge_11_28_0_0 <= 0
 inactive_no_flow_13_14_0_0: flow_13_14_0_0 - 1000 edge_13_14_0_0 <= 0
 inactive_no_flow_14_2_0_0: flow_14_2_0_0 - 1000 edge_14_2_0_0 <= 0
 inactive_no_flow_14_4_0_0: flow_14_4_0_0 - 1000 edge_14_4_0_0 <= 0
 inactive_no_flow_14_5_0_0: flow_14_5_0_0 - 1000 edge_14_5_0_0 <= 0
 inactive_no_flow_14_6_0_0: flow_14_6_0_0 - 1000 edge_14_6_0_0 <= 0
 inactive_no_flow_14_7_0_0: flow_14_7_0_0 - 1000 edge_14_7_0_0 <= 0
 inactive_no_flow_14_8_0_0: flow_14_8_0_0 - 1000 edge_14_8_0_0 <= 0
 inactive_no_flow_14_10_0_0: flow_14_10_0_0 - 1000 edge_14_10_0_0 <= 0
 inactive_no_flow_14_11_0_0: flow_14_11_0_0 - 1000 edge_14_11_0_0 <= 0
 inactive_no_flow_14_13_0_0: flow_14_13_0_0 - 1000 edge_14_13_0_0 <= 0
 inactive_no_flow_14_15_0_0: flow_14_15_0_0 - 1000 edge_14_15_0_0 <= 0
 inactive_no_flow_14_16_0_0: flow_14_16_0_0 - 1000 edge_14_16_0_0 <= 0
 inactive_no_flow_14_17_0_0: flow_14_17_0_0 - 1000 edge_14_17_0_0 <= 0
 inactive_no_flow_14_18_0_0: flow_14_18_0_0 - 1000 edge_14_18_0_0 <= 0
 inactive_no_flow_14_21_0_0: flow_14_21_0_0 - 1000 edge_14_21_0_0 <= 0
 inactive_no_flow_14_22_0_0: flow_14_22_0_0 - 1000 edge_14_22_0_0 <= 0
 inactive_no_flow_14_23_0_0: flow_14_23_0_0 - 1000 edge_14_23_0_0 <= 0
 inactive_no_flow_14_24_0_0: flow_14_24_0_0 - 1000 edge_14_24_0_0 <= 0
 inactive_no_flow_14_25_0_0: flow_14_25_0_0 - 1000 edge_14_25_0_0 <= 0
 inactive_no_flow_14_28_0_0: flow_14_28_0_0 - 1000 edge_14_28_0_0 <= 0
 inactive_no_flow_16_13_0_0: flow_16_13_0_0 - 1000 edge_16_13_0_0 <= 0
 inactive_no_flow_16_14_0_0: flow_16_14_0_0 - 1000 edge_16_14_0_0 <= 0
 inactive_no_flow_16_15_0_0: flow_16_15_0_0 - 1000 edge_16_15_0_0 <= 0
 inactive_no_flow_16_17_0_0: flow_16_17_0_0 - 1000 edge_16_17_0_0 <= 0
 inactive_no_flow_16_18_0_0: flow_16_18_0_0 - 1000 edge_16_18_0_0 <= 0
 inactive_no_flow_16_21_0_0: flow_16_21_0_0 - 1000 edge_16_21_0_0 <= 0
 inactive_no_flow_16_22_0_0: flow_16_22_0_0 - 1000 edge_16_22_0_0 <= 0
 inactive_no_flow_16_23_0_0: flow_16_23_0_0 - 1000 edge_16_23_0_0 <= 0
 inactive_no_flow_16_24_0_0: flow_16_24_0_0 - 1000 edge_16_24_0_0 <= 0
 inactive_no_flow_16_25_0_0: flow_16_25_0_0 - 1000 edge_16_25_0_0 <= 0
 inactive_no_flow_16_28_0_0: flow_16_28_0_0 - 1000 edge_16_28_0_0 <= 0
 inactive_no_flow_17_2_0_0: flow_17_2_0_0 - 1000 edge_17_2_0_0 <= 0
 inactive_no_flow_17_4_0_0: flow_17_4_0_0 - 1000 edge_17_4_0_0 <= 0
 inactive_no_flow_17_5_0_0: flow_17_5_0_0 - 1000 edge_17_5_0_0 <= 0
 inactive_no_flow_17_6_0_0: flow_17_6_0_0 - 1000 edge_17_6_0_0 <= 0
 inactive_no_flow_17_7_0_0: flow_17_7_0_0 - 1000 edge_17_7_0_0 <= 0
 inactive_no_flow_17_8_0_0: flow_17_8_0_0 - 1000 edge_17_8_0_0 <= 0
 inactive_no_flow_17_10_0_0: flow_17_10_0_0 - 1000 edge_17_10_0_0 <= 0
 inactive_no_flow_17_11_0_0: flow_17_11_0_0 - 1000 edge_17_11_0_0 <= 0
 inactive_no_flow_17_13_0_0: flow_17_13_0_0 - 1000 edge_17_13_0_0 <= 0
 inactive_no_flow_17_14_0_0: flow_17_14_0_0 - 1000 edge_17_14_0_0 <= 0
 inactive_no_flow_17_15_0_0: flow_17_15_0_0 - 1000 edge_17_15_0_0 <= 0
 inactive_no_flow_17_16_0_0: flow_17_16_0_0 - 1000 edge_17_16_0_0 <= 0
 inactive_no_flow_17_18_0_0: flow_17_18_0_0 - 1000 edge_17_18_0_0 <= 0
 inactive_no_flow_17_21_0_0: flow_17_21_0_0 - 1000 edge_17_21_0_0 <= 0
 inactive_no_flow_17_22_0_0: flow_17_22_0_0 - 1000 edge_17_22_0_0 <= 0
 inactive_no_flow_17_23_0_0: flow_17_23_0_0 - 1000 edge_17_23_0_0 <= 0
 inactive_no_flow_17_24_0_0: flow_17_24_0_0 - 1000 edge_17_24_0_0 <= 0
 inactive_no_flow_17_25_0_0: flow_17_25_0_0 - 1000 edge_17_25_0_0 <= 0
 inactive_no_flow_17_28_0_0: flow_17_28_0_0 - 1000 edge_17_28_0_0 <= 0
 inactive_no_flow_18_15_0_0: flow_18_15_0_0 - 1000 edge_18_15_0_0 <= 0
 inactive_no_flow_18_16_0_0: flow_18_16_0_0 - 1000 edge_18_16_0_0 <= 0
 inactive_no_flow_18_17_0_0: flow_18_17_0_0 - 1000 edge_18_17_0_0 <= 0
 inactive_no_flow_18_21_0_0: flow_18_21_0_0 - 1000 edge_18_21_0_0 <= 0
 inactive_no_flow_18_22_0_0: flow_18_22_0_0 - 1000 edge_18_22_0_0 <= 0
 inactive_no_flow_18_23_0_0: flow_18_23_0_0 - 1000 edge_18_23_0_0 <= 0
 inactive_no_flow_18_24_0_0: flow_18_24_0_0 - 1000 edge_18_24_0_0 <= 0
 inactive_no_flow_18_25_0_0: flow_18_25_0_0 - 1000 edge_18_25_0_0 <= 0
 inactive_no_flow_22_23_0_0: flow_22_23_0_0 - 1000 edge_22_23_0_0 <= 0
 inactive_no_flow_22_24_0_0: flow_22_24_0_0 - 1000 edge_22_24_0_0 <= 0
 inactive_no_flow_24_2_0_0: flow_24_2_0_0 - 1000 edge_24_2_0_0 <= 0
 inactive_no_flow_24_16_0_0: flow_24_16_0_0 - 1000 edge_24_16_0_0 <= 0
 inactive_no_flow_24_17_0_0: flow_24_17_0_0 - 1000 edge_24_17_0_0 <= 0
 inactive_no_flow_24_18_0_0: flow_24_18_0_0 - 1000 edge_24_18_0_0 <= 0
 inactive_no_flow_24_21_0_0: flow_24_21_0_0 - 1000 edge_24_21_0_0 <= 0
 inactive_no_flow_24_23_0_0: flow_24_23_0_0 - 1000 edge_24_23_0_0 <= 0
 inactive_no_flow_24_25_0_0: flow_24_25_0_0 - 1000 edge_24_25_0_0 <= 0
 inactive_no_flow_24_28_0_0: flow_24_28_0_0 - 1000 edge_24_28_0_0 <= 0
 inactive_no_flow_25_23_0_0: flow_25_23_0_0 - 1000 edge_25_23_0_0 <= 0
 inactive_no_flow_25_24_0_0: flow_25_24_0_0 - 1000 edge_25_24_0_0 <= 0
Bounds
Binaries
 edge_0_2_0_0 edge_0_4_0_0 edge_0_5_0_0 edge_0_6_0_0 edge_0_8_0_0
 edge_0_10_0_0 edge_0_11_0_0 edge_0_14_0_0 edge_0_16_0_0 edge_0_18_0_0
 edge_2_3_0_0 edge_2_4_0_0 edge_4_2_0_0 edge_4_3_0_0 edge_4_5_0_0
 edge_4_6_0_0 edge_4_7_0_0 edge_4_8_0_0 edge_4_10_0_0 edge_4_11_0_0
 edge_4_13_0_0 edge_4_17_0_0 edge_4_21_0_0 edge_4_22_0_0 edge_4_28_0_0
 edge_5_2_0_0 edge_5_3_0_0 edge_5_4_0_0 edge_5_6_0_0 edge_5_7_0_0
 edge_5_8_0_0 edge_5_10_0_0 edge_5_11_0_0 edge_5_13_0_0 edge_5_17_0_0
 edge_5_21_0_0 edge_5_22_0_0 edge_5_28_0_0 edge_6_2_0_0 edge_6_3_0_0
 edge_6_4_0_0 edge_6_5_0_0 edge_6_7_0_0 edge_6_8_0_0 edge_6_10_0_0
 edge_6_11_0_0 edge_6_13_0_0 edge_6_14_0_0 edge_6_16_0_0 edge_6_17_0_0
 edge_6_18_0_0 edge_6_21_0_0 edge_6_22_0_0 edge_6_23_0_0 edge_6_24_0_0
 edge_6_25_0_0 edge_6_28_0_0 edge_8_2_0_0 edge_8_3_0_0 edge_8_4_0_0
 edge_8_5_0_0 edge_8_6_0_0 edge_8_7_0_0 edge_8_10_0_0 edge_8_11_0_0
 edge_10_2_0_0 edge_10_4_0_0 edge_10_5_0_0 edge_10_6_0_0 edge_10_7_0_0
 edge_10_8_0_0 edge_10_10_0_0 edge_10_11_0_0 edge_10_13_0_0 edge_10_14_0_0
 edge_10_16_0_0 edge_10_17_0_0 edge_10_18_0_0 edge_10_21_0_0 edge_10_22_0_0
 edge_10_24_0_0 edge_10_25_0_0 edge_10_28_0_0 edge_11_2_0_0 edge_11_3_0_0
 edge_11_4_0_0 edge_11_5_0_0 edge_11_6_0_0 edge_11_7_0_0 edge_11_8_0_0
 edge_11_10_0_0 edge_11_13_0_0 edge_11_14_0_0 edge_11_16_0_0 edge_11_17_0_0
 edge_11_18_0_0 edge_11_21_0_0 edge_11_22_0_0 edge_11_24_0_0 edge_11_25_0_0
 edge_11_28_0_0 edge_13_14_0_0 edge_14_2_0_0 edge_14_4_0_0 edge_14_5_0_0
 edge_14_6_0_0 edge_14_7_0_0 edge_14_8_0_0 edge_14_10_0_0 edge_14_11_0_0
 edge_14_13_0_0 edge_14_15_0_0 edge_14_16_0_0 edge_14_17_0_0 edge_14_18_0_0
 edge_14_21_0_0 edge_14_22_0_0 edge_14_23_0_0 edge_14_24_0_0 edge_14_25_0_0
 edge_14_28_0_0 edge_16_13_0_0 edge_16_14_0_0 edge_16_15_0_0 edge_16_17_0_0
 edge_16_18_0_0 edge_16_21_0_0 edge_16_22_0_0 edge_16_23_0_0 edge_16_24_0_0
 edge_16_25_0_0 edge_16_28_0_0 edge_17_2_0_0 edge_17_4_0_0 edge_17_5_0_0
 edge_17_6_0_0 edge_17_7_0_0 edge_17_8_0_0 edge_17_10_0_0 edge_17_11_0_0
 edge_17_13_0_0 edge_17_14_0_0 edge_17_15_0_0 edge_17_16_0_0 edge_17_18_0_0
 edge_17_21_0_0 edge_17_22_0_0 edge_17_23_0_0 edge_17_24_0_0 edge_17_25_0_0
 edge_17_28_0_0 edge_18_15_0_0 edge_18_16_0_0 edge_18_17_0_0 edge_18_21_0_0
 edge_18_22_0_0 edge_18_23_0_0 edge_18_24_0_0 edge_18_25_0_0 edge_22_23_0_0
 edge_22_24_0_0 edge_24_2_0_0 edge_24_16_0_0 edge_24_17_0_0 edge_24_18_0_0
 edge_24_21_0_0 edge_24_23_0_0 edge_24_25_0_0 edge_24_28_0_0 edge_25_23_0_0
 edge_25_24_0_0
End
